\ Generated by MPModelProtoExporter
\   Name             : SCIP
\   Format           : Free
\   Constraints      : 45
\   Variables        : 465
\     Binary         : 465
\     Integer        : 0
\     Continuous     : 0
Minimize
 Obj: +32 x[0,0] +79 x[1,0] +48 x[2,0] +77 x[3,0] +56 x[4,0] +5 x[5,0] +39 x[6,0] +85 x[7,0] +88 x[8,0] +44 x[9,0] +6 x[10,0] +56 x[11,0] +44 x[12,0] +62 x[13,0] +29 x[14,0] +75 x[15,0] +55 x[16,0] +38 x[17,0] +22 x[18,0] +89 x[19,0] +36 x[20,0] +16 x[21,0] +26 x[22,0] +36 x[23,0] +98 x[24,0] +3 x[25,0] +51 x[26,0] +45 x[27,0] +62 x[28,0] +92 x[29,0] +96 x[0,1] +20 x[1,1] +36 x[2,1] +55 x[3,1] +77 x[4,1] +61 x[5,1] +42 x[6,1] +33 x[7,1] +14 x[8,1] +22 x[9,1] +90 x[10,1] +77 x[11,1] +99 x[12,1] +76 x[13,1] +55 x[14,1] +3 x[15,1] +36 x[16,1] +24 x[18,1] +7 x[19,1] +48 x[20,1] +99 x[21,1] +46 x[22,1] +52 x[23,1] +74 x[24,1] +69 x[25,1] +86 x[26,1] +36 x[27,1] +48 x[28,1] +42 x[29,1] +65 x[0,2] +65 x[1,2] +28 x[2,2] +50 x[3,2] +20 x[4,2] +65 x[5,2] +34 x[6,2] +2 x[7,2] +3 x[8,2] +98 x[9,2] +14 x[10,2] +96 x[11,2] +20 x[12,2] +5 x[13,2] +31 x[14,2] +58 x[15,2] +3 x[16,2] +29 x[17,2] +47 x[18,2] +15 x[19,2] +77 x[20,2] +97 x[21,2] +15 x[22,2] +70 x[23,2] +53 x[24,2] +4 x[25,2] +21 x[26,2] +39 x[27,2] +62 x[28,2] +98 x[29,2] +25 x[0,3] +18 x[1,3] +52 x[2,3] +45 x[3,3] +74 x[4,3] +28 x[5,3] +72 x[6,3] +30 x[7,3] +76 x[8,3] +4 x[9,3] +55 x[10,3] +12 x[11,3] +24 x[12,3] +78 x[13,3] +61 x[14,3] +43 x[15,3] +12 x[16,3] +90 x[17,3] +26 x[18,3] +56 x[19,3] +23 x[20,3] +41 x[21,3] +38 x[22,3] +71 x[23,3] +44 x[24,3] +31 x[25,3] +31 x[26,3] +24 x[27,3] +16 x[28,3] +67 x[29,3] +85 x[0,4] +11 x[1,4] +65 x[2,4] +70 x[3,4] +83 x[4,4] +62 x[5,4] +52 x[6,4] +83 x[7,4] +88 x[8,4] +81 x[9,4] +74 x[10,4] +65 x[11,4] +93 x[12,4] +52 x[13,4] +55 x[14,4] +1 x[15,4] +84 x[16,4] +44 x[17,4] +35 x[18,4] +3 x[19,4] +16 x[20,4] +92 x[21,4] +49 x[22,4] +6 x[23,4] +43 x[24,4] +77 x[25,4] +27 x[26,4] +3 x[27,4] +75 x[28,4] +20 x[29,4] +50 x[0,5] +58 x[1,5] +13 x[2,5] +97 x[3,5] +74 x[4,5] +68 x[5,5] +42 x[6,5] +85 x[7,5] +54 x[8,5] +30 x[9,5] +21 x[10,5] +79 x[11,5] +87 x[12,5] +51 x[13,5] +47 x[14,5] +58 x[15,5] +20 x[16,5] +59 x[17,5] +42 x[18,5] +65 x[19,5] +53 x[20,5] +35 x[21,5] +69 x[22,5] +32 x[23,5] +90 x[24,5] +95 x[25,5] +1 x[26,5] +66 x[27,5] +30 x[28,5] +99 x[29,5] +59 x[0,6] +51 x[1,6] +47 x[2,6] +69 x[3,6] +47 x[4,6] +77 x[5,6] +36 x[6,6] +81 x[7,6] +92 x[8,6] +31 x[9,6] +46 x[10,6] +66 x[11,6] +57 x[12,6] +80 x[13,6] +91 x[14,6] +29 x[15,6] +43 x[16,6] +94 x[17,6] +16 x[19,6] +7 x[20,6] +11 x[21,6] +38 x[22,6] +73 x[23,6] +47 x[24,6] +51 x[25,6] +71 x[26,6] +40 x[27,6] +99 x[28,6] +2 x[29,6] +39 x[0,7] +8 x[1,7] +28 x[2,7] +45 x[3,7] +82 x[4,7] +35 x[5,7] +67 x[6,7] +26 x[7,7] +54 x[8,7] +53 x[9,7] +73 x[10,7] +99 x[11,7] +10 x[12,7] +58 x[13,7] +20 x[14,7] +26 x[15,7] +45 x[16,7] +57 x[17,7] +1 x[18,7] +57 x[19,7] +73 x[20,7] +31 x[21,7] +69 x[22,7] +61 x[23,7] +65 x[24,7] +18 x[25,7] +40 x[26,7] +88 x[27,7] +78 x[28,7] +49 x[29,7] +41 x[0,8] +84 x[1,8] +18 x[2,8] +59 x[3,8] +50 x[4,8] +88 x[5,8] +12 x[6,8] +30 x[7,8] +74 x[8,8] +14 x[9,8] +2 x[10,8] +64 x[11,8] +9 x[12,8] +49 x[13,8] +92 x[14,8] +18 x[15,8] +69 x[16,8] +36 x[17,8] +80 x[18,8] +37 x[19,8] +98 x[20,8] +84 x[21,8] +91 x[22,8] +95 x[23,8] +40 x[24,8] +10 x[25,8] +85 x[26,8] +21 x[27,8] +28 x[28,8] +28 x[29,8] +13 x[0,9] +79 x[1,9] +11 x[2,9] +60 x[3,9] +80 x[4,9] +65 x[5,9] +23 x[6,9] +1 x[7,9] +65 x[8,9] +6 x[9,9] +62 x[10,9] +74 x[11,9] +37 x[12,9] +52 x[13,9] +44 x[14,9] +73 x[15,9] +42 x[16,9] +24 x[17,9] +1 x[18,9] +74 x[19,9] +37 x[20,9] +95 x[21,9] +52 x[22,9] +74 x[23,9] +54 x[24,9] +9 x[25,9] +56 x[26,9] +44 x[27,9] +82 x[28,9] +36 x[29,9] +6 x[0,10] +35 x[1,10] +45 x[2,10] +10 x[3,10] +74 x[4,10] +2 x[5,10] +86 x[6,10] +95 x[7,10] +44 x[8,10] +4 x[9,10] +32 x[10,10] +12 x[11,10] +51 x[12,10] +90 x[13,10] +51 x[14,10] +90 x[15,10] +59 x[16,10] +33 x[17,10] +87 x[18,10] +75 x[19,10] +21 x[20,10] +89 x[21,10] +23 x[22,10] +80 x[23,10] +41 x[24,10] +26 x[25,10] +93 x[26,10] +93 x[27,10] +92 x[28,10] +61 x[29,10] +96 x[0,11] +89 x[1,11] +37 x[2,11] +39 x[3,11] +38 x[4,11] +7 x[5,11] +31 x[6,11] +99 x[7,11] +47 x[8,11] +47 x[9,11] +32 x[10,11] +40 x[11,11] +63 x[12,11] +7 x[14,11] +74 x[15,11] +88 x[16,11] +97 x[17,11] +23 x[18,11] +31 x[19,11] +87 x[20,11] +70 x[21,11] +61 x[22,11] +52 x[23,11] +42 x[24,11] +70 x[25,11] +22 x[26,11] +2 x[27,11] +30 x[28,11] +70 x[29,11] +27 x[0,12] +10 x[1,12] +93 x[2,12] +64 x[3,12] +31 x[4,12] +91 x[5,12] +62 x[6,12] +84 x[7,12] +73 x[8,12] +32 x[9,12] +17 x[10,12] +3 x[11,12] +92 x[12,12] +66 x[13,12] +21 x[14,12] +75 x[15,12] +21 x[16,12] +12 x[17,12] +69 x[18,12] +58 x[19,12] +5 x[20,12] +40 x[21,12] +82 x[22,12] +12 x[23,12] +41 x[24,12] +50 x[25,12] +6 x[27,12] +21 x[28,12] +56 x[29,12] +73 x[0,13] +1 x[1,13] +33 x[2,13] +12 x[3,13] +10 x[4,13] +52 x[5,13] +68 x[6,13] +39 x[7,13] +11 x[8,13] +50 x[9,13] +79 x[10,13] +14 x[11,13] +61 x[12,13] +13 x[13,13] +95 x[14,13] +91 x[15,13] +1 x[16,13] +24 x[17,13] +78 x[18,13] +34 x[19,13] +11 x[20,13] +28 x[21,13] +69 x[22,13] +69 x[23,13] +16 x[24,13] +32 x[25,13] +23 x[26,13] +77 x[27,13] +12 x[28,13] +10 x[29,13] +47 x[0,14] +69 x[1,14] +57 x[2,14] +53 x[3,14] +5 x[4,14] +34 x[5,14] +92 x[6,14] +47 x[7,14] +78 x[8,14] +13 x[9,14] +48 x[10,14] +60 x[11,14] +89 x[12,14] +59 x[13,14] +88 x[14,14] +11 x[15,14] +6 x[16,14] +36 x[17,14] +38 x[18,14] +11 x[19,14] +71 x[20,14] +7 x[21,14] +80 x[22,14] +17 x[23,14] +41 x[24,14] +75 x[25,14] +42 x[26,14] +57 x[27,14] +95 x[28,14] +65 x[29,14] +2664 y[0] +2368 y[1] +743 y[2] +2795 y[3] +1378 y[4] +1611 y[5] +3421 y[6] +1703 y[7] +3044 y[8] +3256 y[9] +3718 y[10] +2730 y[11] +4582 y[12] +4793 y[13] +1360 y[14] 
Subject to
 auto_c_000000000: +1 x[0,0] +1 x[0,1] +1 x[0,2] +1 x[0,3] +1 x[0,4] +1 x[0,5] +1 x[0,6] +1 x[0,7] +1 x[0,8] +1 x[0,9] +1 x[0,10] +1 x[0,11] +1 x[0,12] +1 x[0,13] +1 x[0,14]  = 1
 auto_c_000000001: +1 x[1,0] +1 x[1,1] +1 x[1,2] +1 x[1,3] +1 x[1,4] +1 x[1,5] +1 x[1,6] +1 x[1,7] +1 x[1,8] +1 x[1,9] +1 x[1,10] +1 x[1,11] +1 x[1,12] +1 x[1,13] +1 x[1,14]  = 1
 auto_c_000000002: +1 x[2,0] +1 x[2,1] +1 x[2,2] +1 x[2,3] +1 x[2,4] +1 x[2,5] +1 x[2,6] +1 x[2,7] +1 x[2,8] +1 x[2,9] +1 x[2,10] +1 x[2,11] +1 x[2,12] +1 x[2,13] +1 x[2,14]  = 1
 auto_c_000000003: +1 x[3,0] +1 x[3,1] +1 x[3,2] +1 x[3,3] +1 x[3,4] +1 x[3,5] +1 x[3,6] +1 x[3,7] +1 x[3,8] +1 x[3,9] +1 x[3,10] +1 x[3,11] +1 x[3,12] +1 x[3,13] +1 x[3,14]  = 1
 auto_c_000000004: +1 x[4,0] +1 x[4,1] +1 x[4,2] +1 x[4,3] +1 x[4,4] +1 x[4,5] +1 x[4,6] +1 x[4,7] +1 x[4,8] +1 x[4,9] +1 x[4,10] +1 x[4,11] +1 x[4,12] +1 x[4,13] +1 x[4,14]  = 1
 auto_c_000000005: +1 x[5,0] +1 x[5,1] +1 x[5,2] +1 x[5,3] +1 x[5,4] +1 x[5,5] +1 x[5,6] +1 x[5,7] +1 x[5,8] +1 x[5,9] +1 x[5,10] +1 x[5,11] +1 x[5,12] +1 x[5,13] +1 x[5,14]  = 1
 auto_c_000000006: +1 x[6,0] +1 x[6,1] +1 x[6,2] +1 x[6,3] +1 x[6,4] +1 x[6,5] +1 x[6,6] +1 x[6,7] +1 x[6,8] +1 x[6,9] +1 x[6,10] +1 x[6,11] +1 x[6,12] +1 x[6,13] +1 x[6,14]  = 1
 auto_c_000000007: +1 x[7,0] +1 x[7,1] +1 x[7,2] +1 x[7,3] +1 x[7,4] +1 x[7,5] +1 x[7,6] +1 x[7,7] +1 x[7,8] +1 x[7,9] +1 x[7,10] +1 x[7,11] +1 x[7,12] +1 x[7,13] +1 x[7,14]  = 1
 auto_c_000000008: +1 x[8,0] +1 x[8,1] +1 x[8,2] +1 x[8,3] +1 x[8,4] +1 x[8,5] +1 x[8,6] +1 x[8,7] +1 x[8,8] +1 x[8,9] +1 x[8,10] +1 x[8,11] +1 x[8,12] +1 x[8,13] +1 x[8,14]  = 1
 auto_c_000000009: +1 x[9,0] +1 x[9,1] +1 x[9,2] +1 x[9,3] +1 x[9,4] +1 x[9,5] +1 x[9,6] +1 x[9,7] +1 x[9,8] +1 x[9,9] +1 x[9,10] +1 x[9,11] +1 x[9,12] +1 x[9,13] +1 x[9,14]  = 1
 auto_c_000000010: +1 x[10,0] +1 x[10,1] +1 x[10,2] +1 x[10,3] +1 x[10,4] +1 x[10,5] +1 x[10,6] +1 x[10,7] +1 x[10,8] +1 x[10,9] +1 x[10,10] +1 x[10,11] +1 x[10,12] +1 x[10,13] +1 x[10,14]  = 1
 auto_c_000000011: +1 x[11,0] +1 x[11,1] +1 x[11,2] +1 x[11,3] +1 x[11,4] +1 x[11,5] +1 x[11,6] +1 x[11,7] +1 x[11,8] +1 x[11,9] +1 x[11,10] +1 x[11,11] +1 x[11,12] +1 x[11,13] +1 x[11,14]  = 1
 auto_c_000000012: +1 x[12,0] +1 x[12,1] +1 x[12,2] +1 x[12,3] +1 x[12,4] +1 x[12,5] +1 x[12,6] +1 x[12,7] +1 x[12,8] +1 x[12,9] +1 x[12,10] +1 x[12,11] +1 x[12,12] +1 x[12,13] +1 x[12,14]  = 1
 auto_c_000000013: +1 x[13,0] +1 x[13,1] +1 x[13,2] +1 x[13,3] +1 x[13,4] +1 x[13,5] +1 x[13,6] +1 x[13,7] +1 x[13,8] +1 x[13,9] +1 x[13,10] +1 x[13,11] +1 x[13,12] +1 x[13,13] +1 x[13,14]  = 1
 auto_c_000000014: +1 x[14,0] +1 x[14,1] +1 x[14,2] +1 x[14,3] +1 x[14,4] +1 x[14,5] +1 x[14,6] +1 x[14,7] +1 x[14,8] +1 x[14,9] +1 x[14,10] +1 x[14,11] +1 x[14,12] +1 x[14,13] +1 x[14,14]  = 1
 auto_c_000000015: +1 x[15,0] +1 x[15,1] +1 x[15,2] +1 x[15,3] +1 x[15,4] +1 x[15,5] +1 x[15,6] +1 x[15,7] +1 x[15,8] +1 x[15,9] +1 x[15,10] +1 x[15,11] +1 x[15,12] +1 x[15,13] +1 x[15,14]  = 1
 auto_c_000000016: +1 x[16,0] +1 x[16,1] +1 x[16,2] +1 x[16,3] +1 x[16,4] +1 x[16,5] +1 x[16,6] +1 x[16,7] +1 x[16,8] +1 x[16,9] +1 x[16,10] +1 x[16,11] +1 x[16,12] +1 x[16,13] +1 x[16,14]  = 1
 auto_c_000000017: +1 x[17,0] +1 x[17,1] +1 x[17,2] +1 x[17,3] +1 x[17,4] +1 x[17,5] +1 x[17,6] +1 x[17,7] +1 x[17,8] +1 x[17,9] +1 x[17,10] +1 x[17,11] +1 x[17,12] +1 x[17,13] +1 x[17,14]  = 1
 auto_c_000000018: +1 x[18,0] +1 x[18,1] +1 x[18,2] +1 x[18,3] +1 x[18,4] +1 x[18,5] +1 x[18,6] +1 x[18,7] +1 x[18,8] +1 x[18,9] +1 x[18,10] +1 x[18,11] +1 x[18,12] +1 x[18,13] +1 x[18,14]  = 1
 auto_c_000000019: +1 x[19,0] +1 x[19,1] +1 x[19,2] +1 x[19,3] +1 x[19,4] +1 x[19,5] +1 x[19,6] +1 x[19,7] +1 x[19,8] +1 x[19,9] +1 x[19,10] +1 x[19,11] +1 x[19,12] +1 x[19,13] +1 x[19,14]  = 1
 auto_c_000000020: +1 x[20,0] +1 x[20,1] +1 x[20,2] +1 x[20,3] +1 x[20,4] +1 x[20,5] +1 x[20,6] +1 x[20,7] +1 x[20,8] +1 x[20,9] +1 x[20,10] +1 x[20,11] +1 x[20,12] +1 x[20,13] +1 x[20,14]  = 1
 auto_c_000000021: +1 x[21,0] +1 x[21,1] +1 x[21,2] +1 x[21,3] +1 x[21,4] +1 x[21,5] +1 x[21,6] +1 x[21,7] +1 x[21,8] +1 x[21,9] +1 x[21,10] +1 x[21,11] +1 x[21,12] +1 x[21,13] +1 x[21,14]  = 1
 auto_c_000000022: +1 x[22,0] +1 x[22,1] +1 x[22,2] +1 x[22,3] +1 x[22,4] +1 x[22,5] +1 x[22,6] +1 x[22,7] +1 x[22,8] +1 x[22,9] +1 x[22,10] +1 x[22,11] +1 x[22,12] +1 x[22,13] +1 x[22,14]  = 1
 auto_c_000000023: +1 x[23,0] +1 x[23,1] +1 x[23,2] +1 x[23,3] +1 x[23,4] +1 x[23,5] +1 x[23,6] +1 x[23,7] +1 x[23,8] +1 x[23,9] +1 x[23,10] +1 x[23,11] +1 x[23,12] +1 x[23,13] +1 x[23,14]  = 1
 auto_c_000000024: +1 x[24,0] +1 x[24,1] +1 x[24,2] +1 x[24,3] +1 x[24,4] +1 x[24,5] +1 x[24,6] +1 x[24,7] +1 x[24,8] +1 x[24,9] +1 x[24,10] +1 x[24,11] +1 x[24,12] +1 x[24,13] +1 x[24,14]  = 1
 auto_c_000000025: +1 x[25,0] +1 x[25,1] +1 x[25,2] +1 x[25,3] +1 x[25,4] +1 x[25,5] +1 x[25,6] +1 x[25,7] +1 x[25,8] +1 x[25,9] +1 x[25,10] +1 x[25,11] +1 x[25,12] +1 x[25,13] +1 x[25,14]  = 1
 auto_c_000000026: +1 x[26,0] +1 x[26,1] +1 x[26,2] +1 x[26,3] +1 x[26,4] +1 x[26,5] +1 x[26,6] +1 x[26,7] +1 x[26,8] +1 x[26,9] +1 x[26,10] +1 x[26,11] +1 x[26,12] +1 x[26,13] +1 x[26,14]  = 1
 auto_c_000000027: +1 x[27,0] +1 x[27,1] +1 x[27,2] +1 x[27,3] +1 x[27,4] +1 x[27,5] +1 x[27,6] +1 x[27,7] +1 x[27,8] +1 x[27,9] +1 x[27,10] +1 x[27,11] +1 x[27,12] +1 x[27,13] +1 x[27,14]  = 1
 auto_c_000000028: +1 x[28,0] +1 x[28,1] +1 x[28,2] +1 x[28,3] +1 x[28,4] +1 x[28,5] +1 x[28,6] +1 x[28,7] +1 x[28,8] +1 x[28,9] +1 x[28,10] +1 x[28,11] +1 x[28,12] +1 x[28,13] +1 x[28,14]  = 1
 auto_c_000000029: +1 x[29,0] +1 x[29,1] +1 x[29,2] +1 x[29,3] +1 x[29,4] +1 x[29,5] +1 x[29,6] +1 x[29,7] +1 x[29,8] +1 x[29,9] +1 x[29,10] +1 x[29,11] +1 x[29,12] +1 x[29,13] +1 x[29,14]  = 1
 auto_c_000000030: +10 x[0,0] +14 x[1,0] +13 x[2,0] +21 x[3,0] +21 x[4,0] +18 x[5,0] +18 x[6,0] +11 x[7,0] +22 x[8,0] +22 x[9,0] +19 x[10,0] +12 x[11,0] +19 x[12,0] +12 x[13,0] +15 x[14,0] +23 x[15,0] +16 x[16,0] +28 x[17,0] +12 x[18,0] +15 x[19,0] +29 x[20,0] +11 x[21,0] +18 x[22,0] +23 x[23,0] +25 x[24,0] +25 x[25,0] +17 x[26,0] +19 x[27,0] +24 x[28,0] +29 x[29,0] -56 y[0]  <= 0
 auto_c_000000031: +10 x[0,1] +14 x[1,1] +13 x[2,1] +21 x[3,1] +21 x[4,1] +18 x[5,1] +18 x[6,1] +11 x[7,1] +22 x[8,1] +22 x[9,1] +19 x[10,1] +12 x[11,1] +19 x[12,1] +12 x[13,1] +15 x[14,1] +23 x[15,1] +16 x[16,1] +28 x[17,1] +12 x[18,1] +15 x[19,1] +29 x[20,1] +11 x[21,1] +18 x[22,1] +23 x[23,1] +25 x[24,1] +25 x[25,1] +17 x[26,1] +19 x[27,1] +24 x[28,1] +29 x[29,1] -80 y[1]  <= 0
 auto_c_000000032: +10 x[0,2] +14 x[1,2] +13 x[2,2] +21 x[3,2] +21 x[4,2] +18 x[5,2] +18 x[6,2] +11 x[7,2] +22 x[8,2] +22 x[9,2] +19 x[10,2] +12 x[11,2] +19 x[12,2] +12 x[13,2] +15 x[14,2] +23 x[15,2] +16 x[16,2] +28 x[17,2] +12 x[18,2] +15 x[19,2] +29 x[20,2] +11 x[21,2] +18 x[22,2] +23 x[23,2] +25 x[24,2] +25 x[25,2] +17 x[26,2] +19 x[27,2] +24 x[28,2] +29 x[29,2] -30 y[2]  <= 0
 auto_c_000000033: +10 x[0,3] +14 x[1,3] +13 x[2,3] +21 x[3,3] +21 x[4,3] +18 x[5,3] +18 x[6,3] +11 x[7,3] +22 x[8,3] +22 x[9,3] +19 x[10,3] +12 x[11,3] +19 x[12,3] +12 x[13,3] +15 x[14,3] +23 x[15,3] +16 x[16,3] +28 x[17,3] +12 x[18,3] +15 x[19,3] +29 x[20,3] +11 x[21,3] +18 x[22,3] +23 x[23,3] +25 x[24,3] +25 x[25,3] +17 x[26,3] +19 x[27,3] +24 x[28,3] +29 x[29,3] -46 y[3]  <= 0
 auto_c_000000034: +10 x[0,4] +14 x[1,4] +13 x[2,4] +21 x[3,4] +21 x[4,4] +18 x[5,4] +18 x[6,4] +11 x[7,4] +22 x[8,4] +22 x[9,4] +19 x[10,4] +12 x[11,4] +19 x[12,4] +12 x[13,4] +15 x[14,4] +23 x[15,4] +16 x[16,4] +28 x[17,4] +12 x[18,4] +15 x[19,4] +29 x[20,4] +11 x[21,4] +18 x[22,4] +23 x[23,4] +25 x[24,4] +25 x[25,4] +17 x[26,4] +19 x[27,4] +24 x[28,4] +29 x[29,4] -22 y[4]  <= 0
 auto_c_000000035: +10 x[0,5] +14 x[1,5] +13 x[2,5] +21 x[3,5] +21 x[4,5] +18 x[5,5] +18 x[6,5] +11 x[7,5] +22 x[8,5] +22 x[9,5] +19 x[10,5] +12 x[11,5] +19 x[12,5] +12 x[13,5] +15 x[14,5] +23 x[15,5] +16 x[16,5] +28 x[17,5] +12 x[18,5] +15 x[19,5] +29 x[20,5] +11 x[21,5] +18 x[22,5] +23 x[23,5] +25 x[24,5] +25 x[25,5] +17 x[26,5] +19 x[27,5] +24 x[28,5] +29 x[29,5] -47 y[5]  <= 0
 auto_c_000000036: +10 x[0,6] +14 x[1,6] +13 x[2,6] +21 x[3,6] +21 x[4,6] +18 x[5,6] +18 x[6,6] +11 x[7,6] +22 x[8,6] +22 x[9,6] +19 x[10,6] +12 x[11,6] +19 x[12,6] +12 x[13,6] +15 x[14,6] +23 x[15,6] +16 x[16,6] +28 x[17,6] +12 x[18,6] +15 x[19,6] +29 x[20,6] +11 x[21,6] +18 x[22,6] +23 x[23,6] +25 x[24,6] +25 x[25,6] +17 x[26,6] +19 x[27,6] +24 x[28,6] +29 x[29,6] -70 y[6]  <= 0
 auto_c_000000037: +10 x[0,7] +14 x[1,7] +13 x[2,7] +21 x[3,7] +21 x[4,7] +18 x[5,7] +18 x[6,7] +11 x[7,7] +22 x[8,7] +22 x[9,7] +19 x[10,7] +12 x[11,7] +19 x[12,7] +12 x[13,7] +15 x[14,7] +23 x[15,7] +16 x[16,7] +28 x[17,7] +12 x[18,7] +15 x[19,7] +29 x[20,7] +11 x[21,7] +18 x[22,7] +23 x[23,7] +25 x[24,7] +25 x[25,7] +17 x[26,7] +19 x[27,7] +24 x[28,7] +29 x[29,7] -27 y[7]  <= 0
 auto_c_000000038: +10 x[0,8] +14 x[1,8] +13 x[2,8] +21 x[3,8] +21 x[4,8] +18 x[5,8] +18 x[6,8] +11 x[7,8] +22 x[8,8] +22 x[9,8] +19 x[10,8] +12 x[11,8] +19 x[12,8] +12 x[13,8] +15 x[14,8] +23 x[15,8] +16 x[16,8] +28 x[17,8] +12 x[18,8] +15 x[19,8] +29 x[20,8] +11 x[21,8] +18 x[22,8] +23 x[23,8] +25 x[24,8] +25 x[25,8] +17 x[26,8] +19 x[27,8] +24 x[28,8] +29 x[29,8] -73 y[8]  <= 0
 auto_c_000000039: +10 x[0,9] +14 x[1,9] +13 x[2,9] +21 x[3,9] +21 x[4,9] +18 x[5,9] +18 x[6,9] +11 x[7,9] +22 x[8,9] +22 x[9,9] +19 x[10,9] +12 x[11,9] +19 x[12,9] +12 x[13,9] +15 x[14,9] +23 x[15,9] +16 x[16,9] +28 x[17,9] +12 x[18,9] +15 x[19,9] +29 x[20,9] +11 x[21,9] +18 x[22,9] +23 x[23,9] +25 x[24,9] +25 x[25,9] +17 x[26,9] +19 x[27,9] +24 x[28,9] +29 x[29,9] -51 y[9]  <= 0
 auto_c_000000040: +10 x[0,10] +14 x[1,10] +13 x[2,10] +21 x[3,10] +21 x[4,10] +18 x[5,10] +18 x[6,10] +11 x[7,10] +22 x[8,10] +22 x[9,10] +19 x[10,10] +12 x[11,10] +19 x[12,10] +12 x[13,10] +15 x[14,10] +23 x[15,10] +16 x[16,10] +28 x[17,10] +12 x[18,10] +15 x[19,10] +29 x[20,10] +11 x[21,10] +18 x[22,10] +23 x[23,10] +25 x[24,10] +25 x[25,10] +17 x[26,10] +19 x[27,10] +24 x[28,10] +29 x[29,10] -62 y[10]  <= 0
 auto_c_000000041: +10 x[0,11] +14 x[1,11] +13 x[2,11] +21 x[3,11] +21 x[4,11] +18 x[5,11] +18 x[6,11] +11 x[7,11] +22 x[8,11] +22 x[9,11] +19 x[10,11] +12 x[11,11] +19 x[12,11] +12 x[13,11] +15 x[14,11] +23 x[15,11] +16 x[16,11] +28 x[17,11] +12 x[18,11] +15 x[19,11] +29 x[20,11] +11 x[21,11] +18 x[22,11] +23 x[23,11] +25 x[24,11] +25 x[25,11] +17 x[26,11] +19 x[27,11] +24 x[28,11] +29 x[29,11] -71 y[11]  <= 0
 auto_c_000000042: +10 x[0,12] +14 x[1,12] +13 x[2,12] +21 x[3,12] +21 x[4,12] +18 x[5,12] +18 x[6,12] +11 x[7,12] +22 x[8,12] +22 x[9,12] +19 x[10,12] +12 x[11,12] +19 x[12,12] +12 x[13,12] +15 x[14,12] +23 x[15,12] +16 x[16,12] +28 x[17,12] +12 x[18,12] +15 x[19,12] +29 x[20,12] +11 x[21,12] +18 x[22,12] +23 x[23,12] +25 x[24,12] +25 x[25,12] +17 x[26,12] +19 x[27,12] +24 x[28,12] +29 x[29,12] -74 y[12]  <= 0
 auto_c_000000043: +10 x[0,13] +14 x[1,13] +13 x[2,13] +21 x[3,13] +21 x[4,13] +18 x[5,13] +18 x[6,13] +11 x[7,13] +22 x[8,13] +22 x[9,13] +19 x[10,13] +12 x[11,13] +19 x[12,13] +12 x[13,13] +15 x[14,13] +23 x[15,13] +16 x[16,13] +28 x[17,13] +12 x[18,13] +15 x[19,13] +29 x[20,13] +11 x[21,13] +18 x[22,13] +23 x[23,13] +25 x[24,13] +25 x[25,13] +17 x[26,13] +19 x[27,13] +24 x[28,13] +29 x[29,13] -82 y[13]  <= 0
 auto_c_000000044: +10 x[0,14] +14 x[1,14] +13 x[2,14] +21 x[3,14] +21 x[4,14] +18 x[5,14] +18 x[6,14] +11 x[7,14] +22 x[8,14] +22 x[9,14] +19 x[10,14] +12 x[11,14] +19 x[12,14] +12 x[13,14] +15 x[14,14] +23 x[15,14] +16 x[16,14] +28 x[17,14] +12 x[18,14] +15 x[19,14] +29 x[20,14] +11 x[21,14] +18 x[22,14] +23 x[23,14] +25 x[24,14] +25 x[25,14] +17 x[26,14] +19 x[27,14] +24 x[28,14] +29 x[29,14] -55 y[14]  <= 0
Bounds
 0 <= x[0,0] <= 1
 0 <= x[1,0] <= 1
 0 <= x[2,0] <= 1
 0 <= x[3,0] <= 1
 0 <= x[4,0] <= 1
 0 <= x[5,0] <= 1
 0 <= x[6,0] <= 1
 0 <= x[7,0] <= 1
 0 <= x[8,0] <= 1
 0 <= x[9,0] <= 1
 0 <= x[10,0] <= 1
 0 <= x[11,0] <= 1
 0 <= x[12,0] <= 1
 0 <= x[13,0] <= 1
 0 <= x[14,0] <= 1
 0 <= x[15,0] <= 1
 0 <= x[16,0] <= 1
 0 <= x[17,0] <= 1
 0 <= x[18,0] <= 1
 0 <= x[19,0] <= 1
 0 <= x[20,0] <= 1
 0 <= x[21,0] <= 1
 0 <= x[22,0] <= 1
 0 <= x[23,0] <= 1
 0 <= x[24,0] <= 1
 0 <= x[25,0] <= 1
 0 <= x[26,0] <= 1
 0 <= x[27,0] <= 1
 0 <= x[28,0] <= 1
 0 <= x[29,0] <= 1
 0 <= x[0,1] <= 1
 0 <= x[1,1] <= 1
 0 <= x[2,1] <= 1
 0 <= x[3,1] <= 1
 0 <= x[4,1] <= 1
 0 <= x[5,1] <= 1
 0 <= x[6,1] <= 1
 0 <= x[7,1] <= 1
 0 <= x[8,1] <= 1
 0 <= x[9,1] <= 1
 0 <= x[10,1] <= 1
 0 <= x[11,1] <= 1
 0 <= x[12,1] <= 1
 0 <= x[13,1] <= 1
 0 <= x[14,1] <= 1
 0 <= x[15,1] <= 1
 0 <= x[16,1] <= 1
 0 <= x[17,1] <= 1
 0 <= x[18,1] <= 1
 0 <= x[19,1] <= 1
 0 <= x[20,1] <= 1
 0 <= x[21,1] <= 1
 0 <= x[22,1] <= 1
 0 <= x[23,1] <= 1
 0 <= x[24,1] <= 1
 0 <= x[25,1] <= 1
 0 <= x[26,1] <= 1
 0 <= x[27,1] <= 1
 0 <= x[28,1] <= 1
 0 <= x[29,1] <= 1
 0 <= x[0,2] <= 1
 0 <= x[1,2] <= 1
 0 <= x[2,2] <= 1
 0 <= x[3,2] <= 1
 0 <= x[4,2] <= 1
 0 <= x[5,2] <= 1
 0 <= x[6,2] <= 1
 0 <= x[7,2] <= 1
 0 <= x[8,2] <= 1
 0 <= x[9,2] <= 1
 0 <= x[10,2] <= 1
 0 <= x[11,2] <= 1
 0 <= x[12,2] <= 1
 0 <= x[13,2] <= 1
 0 <= x[14,2] <= 1
 0 <= x[15,2] <= 1
 0 <= x[16,2] <= 1
 0 <= x[17,2] <= 1
 0 <= x[18,2] <= 1
 0 <= x[19,2] <= 1
 0 <= x[20,2] <= 1
 0 <= x[21,2] <= 1
 0 <= x[22,2] <= 1
 0 <= x[23,2] <= 1
 0 <= x[24,2] <= 1
 0 <= x[25,2] <= 1
 0 <= x[26,2] <= 1
 0 <= x[27,2] <= 1
 0 <= x[28,2] <= 1
 0 <= x[29,2] <= 1
 0 <= x[0,3] <= 1
 0 <= x[1,3] <= 1
 0 <= x[2,3] <= 1
 0 <= x[3,3] <= 1
 0 <= x[4,3] <= 1
 0 <= x[5,3] <= 1
 0 <= x[6,3] <= 1
 0 <= x[7,3] <= 1
 0 <= x[8,3] <= 1
 0 <= x[9,3] <= 1
 0 <= x[10,3] <= 1
 0 <= x[11,3] <= 1
 0 <= x[12,3] <= 1
 0 <= x[13,3] <= 1
 0 <= x[14,3] <= 1
 0 <= x[15,3] <= 1
 0 <= x[16,3] <= 1
 0 <= x[17,3] <= 1
 0 <= x[18,3] <= 1
 0 <= x[19,3] <= 1
 0 <= x[20,3] <= 1
 0 <= x[21,3] <= 1
 0 <= x[22,3] <= 1
 0 <= x[23,3] <= 1
 0 <= x[24,3] <= 1
 0 <= x[25,3] <= 1
 0 <= x[26,3] <= 1
 0 <= x[27,3] <= 1
 0 <= x[28,3] <= 1
 0 <= x[29,3] <= 1
 0 <= x[0,4] <= 1
 0 <= x[1,4] <= 1
 0 <= x[2,4] <= 1
 0 <= x[3,4] <= 1
 0 <= x[4,4] <= 1
 0 <= x[5,4] <= 1
 0 <= x[6,4] <= 1
 0 <= x[7,4] <= 1
 0 <= x[8,4] <= 1
 0 <= x[9,4] <= 1
 0 <= x[10,4] <= 1
 0 <= x[11,4] <= 1
 0 <= x[12,4] <= 1
 0 <= x[13,4] <= 1
 0 <= x[14,4] <= 1
 0 <= x[15,4] <= 1
 0 <= x[16,4] <= 1
 0 <= x[17,4] <= 1
 0 <= x[18,4] <= 1
 0 <= x[19,4] <= 1
 0 <= x[20,4] <= 1
 0 <= x[21,4] <= 1
 0 <= x[22,4] <= 1
 0 <= x[23,4] <= 1
 0 <= x[24,4] <= 1
 0 <= x[25,4] <= 1
 0 <= x[26,4] <= 1
 0 <= x[27,4] <= 1
 0 <= x[28,4] <= 1
 0 <= x[29,4] <= 1
 0 <= x[0,5] <= 1
 0 <= x[1,5] <= 1
 0 <= x[2,5] <= 1
 0 <= x[3,5] <= 1
 0 <= x[4,5] <= 1
 0 <= x[5,5] <= 1
 0 <= x[6,5] <= 1
 0 <= x[7,5] <= 1
 0 <= x[8,5] <= 1
 0 <= x[9,5] <= 1
 0 <= x[10,5] <= 1
 0 <= x[11,5] <= 1
 0 <= x[12,5] <= 1
 0 <= x[13,5] <= 1
 0 <= x[14,5] <= 1
 0 <= x[15,5] <= 1
 0 <= x[16,5] <= 1
 0 <= x[17,5] <= 1
 0 <= x[18,5] <= 1
 0 <= x[19,5] <= 1
 0 <= x[20,5] <= 1
 0 <= x[21,5] <= 1
 0 <= x[22,5] <= 1
 0 <= x[23,5] <= 1
 0 <= x[24,5] <= 1
 0 <= x[25,5] <= 1
 0 <= x[26,5] <= 1
 0 <= x[27,5] <= 1
 0 <= x[28,5] <= 1
 0 <= x[29,5] <= 1
 0 <= x[0,6] <= 1
 0 <= x[1,6] <= 1
 0 <= x[2,6] <= 1
 0 <= x[3,6] <= 1
 0 <= x[4,6] <= 1
 0 <= x[5,6] <= 1
 0 <= x[6,6] <= 1
 0 <= x[7,6] <= 1
 0 <= x[8,6] <= 1
 0 <= x[9,6] <= 1
 0 <= x[10,6] <= 1
 0 <= x[11,6] <= 1
 0 <= x[12,6] <= 1
 0 <= x[13,6] <= 1
 0 <= x[14,6] <= 1
 0 <= x[15,6] <= 1
 0 <= x[16,6] <= 1
 0 <= x[17,6] <= 1
 0 <= x[18,6] <= 1
 0 <= x[19,6] <= 1
 0 <= x[20,6] <= 1
 0 <= x[21,6] <= 1
 0 <= x[22,6] <= 1
 0 <= x[23,6] <= 1
 0 <= x[24,6] <= 1
 0 <= x[25,6] <= 1
 0 <= x[26,6] <= 1
 0 <= x[27,6] <= 1
 0 <= x[28,6] <= 1
 0 <= x[29,6] <= 1
 0 <= x[0,7] <= 1
 0 <= x[1,7] <= 1
 0 <= x[2,7] <= 1
 0 <= x[3,7] <= 1
 0 <= x[4,7] <= 1
 0 <= x[5,7] <= 1
 0 <= x[6,7] <= 1
 0 <= x[7,7] <= 1
 0 <= x[8,7] <= 1
 0 <= x[9,7] <= 1
 0 <= x[10,7] <= 1
 0 <= x[11,7] <= 1
 0 <= x[12,7] <= 1
 0 <= x[13,7] <= 1
 0 <= x[14,7] <= 1
 0 <= x[15,7] <= 1
 0 <= x[16,7] <= 1
 0 <= x[17,7] <= 1
 0 <= x[18,7] <= 1
 0 <= x[19,7] <= 1
 0 <= x[20,7] <= 1
 0 <= x[21,7] <= 1
 0 <= x[22,7] <= 1
 0 <= x[23,7] <= 1
 0 <= x[24,7] <= 1
 0 <= x[25,7] <= 1
 0 <= x[26,7] <= 1
 0 <= x[27,7] <= 1
 0 <= x[28,7] <= 1
 0 <= x[29,7] <= 1
 0 <= x[0,8] <= 1
 0 <= x[1,8] <= 1
 0 <= x[2,8] <= 1
 0 <= x[3,8] <= 1
 0 <= x[4,8] <= 1
 0 <= x[5,8] <= 1
 0 <= x[6,8] <= 1
 0 <= x[7,8] <= 1
 0 <= x[8,8] <= 1
 0 <= x[9,8] <= 1
 0 <= x[10,8] <= 1
 0 <= x[11,8] <= 1
 0 <= x[12,8] <= 1
 0 <= x[13,8] <= 1
 0 <= x[14,8] <= 1
 0 <= x[15,8] <= 1
 0 <= x[16,8] <= 1
 0 <= x[17,8] <= 1
 0 <= x[18,8] <= 1
 0 <= x[19,8] <= 1
 0 <= x[20,8] <= 1
 0 <= x[21,8] <= 1
 0 <= x[22,8] <= 1
 0 <= x[23,8] <= 1
 0 <= x[24,8] <= 1
 0 <= x[25,8] <= 1
 0 <= x[26,8] <= 1
 0 <= x[27,8] <= 1
 0 <= x[28,8] <= 1
 0 <= x[29,8] <= 1
 0 <= x[0,9] <= 1
 0 <= x[1,9] <= 1
 0 <= x[2,9] <= 1
 0 <= x[3,9] <= 1
 0 <= x[4,9] <= 1
 0 <= x[5,9] <= 1
 0 <= x[6,9] <= 1
 0 <= x[7,9] <= 1
 0 <= x[8,9] <= 1
 0 <= x[9,9] <= 1
 0 <= x[10,9] <= 1
 0 <= x[11,9] <= 1
 0 <= x[12,9] <= 1
 0 <= x[13,9] <= 1
 0 <= x[14,9] <= 1
 0 <= x[15,9] <= 1
 0 <= x[16,9] <= 1
 0 <= x[17,9] <= 1
 0 <= x[18,9] <= 1
 0 <= x[19,9] <= 1
 0 <= x[20,9] <= 1
 0 <= x[21,9] <= 1
 0 <= x[22,9] <= 1
 0 <= x[23,9] <= 1
 0 <= x[24,9] <= 1
 0 <= x[25,9] <= 1
 0 <= x[26,9] <= 1
 0 <= x[27,9] <= 1
 0 <= x[28,9] <= 1
 0 <= x[29,9] <= 1
 0 <= x[0,10] <= 1
 0 <= x[1,10] <= 1
 0 <= x[2,10] <= 1
 0 <= x[3,10] <= 1
 0 <= x[4,10] <= 1
 0 <= x[5,10] <= 1
 0 <= x[6,10] <= 1
 0 <= x[7,10] <= 1
 0 <= x[8,10] <= 1
 0 <= x[9,10] <= 1
 0 <= x[10,10] <= 1
 0 <= x[11,10] <= 1
 0 <= x[12,10] <= 1
 0 <= x[13,10] <= 1
 0 <= x[14,10] <= 1
 0 <= x[15,10] <= 1
 0 <= x[16,10] <= 1
 0 <= x[17,10] <= 1
 0 <= x[18,10] <= 1
 0 <= x[19,10] <= 1
 0 <= x[20,10] <= 1
 0 <= x[21,10] <= 1
 0 <= x[22,10] <= 1
 0 <= x[23,10] <= 1
 0 <= x[24,10] <= 1
 0 <= x[25,10] <= 1
 0 <= x[26,10] <= 1
 0 <= x[27,10] <= 1
 0 <= x[28,10] <= 1
 0 <= x[29,10] <= 1
 0 <= x[0,11] <= 1
 0 <= x[1,11] <= 1
 0 <= x[2,11] <= 1
 0 <= x[3,11] <= 1
 0 <= x[4,11] <= 1
 0 <= x[5,11] <= 1
 0 <= x[6,11] <= 1
 0 <= x[7,11] <= 1
 0 <= x[8,11] <= 1
 0 <= x[9,11] <= 1
 0 <= x[10,11] <= 1
 0 <= x[11,11] <= 1
 0 <= x[12,11] <= 1
 0 <= x[13,11] <= 1
 0 <= x[14,11] <= 1
 0 <= x[15,11] <= 1
 0 <= x[16,11] <= 1
 0 <= x[17,11] <= 1
 0 <= x[18,11] <= 1
 0 <= x[19,11] <= 1
 0 <= x[20,11] <= 1
 0 <= x[21,11] <= 1
 0 <= x[22,11] <= 1
 0 <= x[23,11] <= 1
 0 <= x[24,11] <= 1
 0 <= x[25,11] <= 1
 0 <= x[26,11] <= 1
 0 <= x[27,11] <= 1
 0 <= x[28,11] <= 1
 0 <= x[29,11] <= 1
 0 <= x[0,12] <= 1
 0 <= x[1,12] <= 1
 0 <= x[2,12] <= 1
 0 <= x[3,12] <= 1
 0 <= x[4,12] <= 1
 0 <= x[5,12] <= 1
 0 <= x[6,12] <= 1
 0 <= x[7,12] <= 1
 0 <= x[8,12] <= 1
 0 <= x[9,12] <= 1
 0 <= x[10,12] <= 1
 0 <= x[11,12] <= 1
 0 <= x[12,12] <= 1
 0 <= x[13,12] <= 1
 0 <= x[14,12] <= 1
 0 <= x[15,12] <= 1
 0 <= x[16,12] <= 1
 0 <= x[17,12] <= 1
 0 <= x[18,12] <= 1
 0 <= x[19,12] <= 1
 0 <= x[20,12] <= 1
 0 <= x[21,12] <= 1
 0 <= x[22,12] <= 1
 0 <= x[23,12] <= 1
 0 <= x[24,12] <= 1
 0 <= x[25,12] <= 1
 0 <= x[26,12] <= 1
 0 <= x[27,12] <= 1
 0 <= x[28,12] <= 1
 0 <= x[29,12] <= 1
 0 <= x[0,13] <= 1
 0 <= x[1,13] <= 1
 0 <= x[2,13] <= 1
 0 <= x[3,13] <= 1
 0 <= x[4,13] <= 1
 0 <= x[5,13] <= 1
 0 <= x[6,13] <= 1
 0 <= x[7,13] <= 1
 0 <= x[8,13] <= 1
 0 <= x[9,13] <= 1
 0 <= x[10,13] <= 1
 0 <= x[11,13] <= 1
 0 <= x[12,13] <= 1
 0 <= x[13,13] <= 1
 0 <= x[14,13] <= 1
 0 <= x[15,13] <= 1
 0 <= x[16,13] <= 1
 0 <= x[17,13] <= 1
 0 <= x[18,13] <= 1
 0 <= x[19,13] <= 1
 0 <= x[20,13] <= 1
 0 <= x[21,13] <= 1
 0 <= x[22,13] <= 1
 0 <= x[23,13] <= 1
 0 <= x[24,13] <= 1
 0 <= x[25,13] <= 1
 0 <= x[26,13] <= 1
 0 <= x[27,13] <= 1
 0 <= x[28,13] <= 1
 0 <= x[29,13] <= 1
 0 <= x[0,14] <= 1
 0 <= x[1,14] <= 1
 0 <= x[2,14] <= 1
 0 <= x[3,14] <= 1
 0 <= x[4,14] <= 1
 0 <= x[5,14] <= 1
 0 <= x[6,14] <= 1
 0 <= x[7,14] <= 1
 0 <= x[8,14] <= 1
 0 <= x[9,14] <= 1
 0 <= x[10,14] <= 1
 0 <= x[11,14] <= 1
 0 <= x[12,14] <= 1
 0 <= x[13,14] <= 1
 0 <= x[14,14] <= 1
 0 <= x[15,14] <= 1
 0 <= x[16,14] <= 1
 0 <= x[17,14] <= 1
 0 <= x[18,14] <= 1
 0 <= x[19,14] <= 1
 0 <= x[20,14] <= 1
 0 <= x[21,14] <= 1
 0 <= x[22,14] <= 1
 0 <= x[23,14] <= 1
 0 <= x[24,14] <= 1
 0 <= x[25,14] <= 1
 0 <= x[26,14] <= 1
 0 <= x[27,14] <= 1
 0 <= x[28,14] <= 1
 0 <= x[29,14] <= 1
 0 <= y[0] <= 1
 0 <= y[1] <= 1
 0 <= y[2] <= 1
 0 <= y[3] <= 1
 0 <= y[4] <= 1
 0 <= y[5] <= 1
 0 <= y[6] <= 1
 0 <= y[7] <= 1
 0 <= y[8] <= 1
 0 <= y[9] <= 1
 0 <= y[10] <= 1
 0 <= y[11] <= 1
 0 <= y[12] <= 1
 0 <= y[13] <= 1
 0 <= y[14] <= 1
Binaries
 x[0,0]
 x[1,0]
 x[2,0]
 x[3,0]
 x[4,0]
 x[5,0]
 x[6,0]
 x[7,0]
 x[8,0]
 x[9,0]
 x[10,0]
 x[11,0]
 x[12,0]
 x[13,0]
 x[14,0]
 x[15,0]
 x[16,0]
 x[17,0]
 x[18,0]
 x[19,0]
 x[20,0]
 x[21,0]
 x[22,0]
 x[23,0]
 x[24,0]
 x[25,0]
 x[26,0]
 x[27,0]
 x[28,0]
 x[29,0]
 x[0,1]
 x[1,1]
 x[2,1]
 x[3,1]
 x[4,1]
 x[5,1]
 x[6,1]
 x[7,1]
 x[8,1]
 x[9,1]
 x[10,1]
 x[11,1]
 x[12,1]
 x[13,1]
 x[14,1]
 x[15,1]
 x[16,1]
 x[17,1]
 x[18,1]
 x[19,1]
 x[20,1]
 x[21,1]
 x[22,1]
 x[23,1]
 x[24,1]
 x[25,1]
 x[26,1]
 x[27,1]
 x[28,1]
 x[29,1]
 x[0,2]
 x[1,2]
 x[2,2]
 x[3,2]
 x[4,2]
 x[5,2]
 x[6,2]
 x[7,2]
 x[8,2]
 x[9,2]
 x[10,2]
 x[11,2]
 x[12,2]
 x[13,2]
 x[14,2]
 x[15,2]
 x[16,2]
 x[17,2]
 x[18,2]
 x[19,2]
 x[20,2]
 x[21,2]
 x[22,2]
 x[23,2]
 x[24,2]
 x[25,2]
 x[26,2]
 x[27,2]
 x[28,2]
 x[29,2]
 x[0,3]
 x[1,3]
 x[2,3]
 x[3,3]
 x[4,3]
 x[5,3]
 x[6,3]
 x[7,3]
 x[8,3]
 x[9,3]
 x[10,3]
 x[11,3]
 x[12,3]
 x[13,3]
 x[14,3]
 x[15,3]
 x[16,3]
 x[17,3]
 x[18,3]
 x[19,3]
 x[20,3]
 x[21,3]
 x[22,3]
 x[23,3]
 x[24,3]
 x[25,3]
 x[26,3]
 x[27,3]
 x[28,3]
 x[29,3]
 x[0,4]
 x[1,4]
 x[2,4]
 x[3,4]
 x[4,4]
 x[5,4]
 x[6,4]
 x[7,4]
 x[8,4]
 x[9,4]
 x[10,4]
 x[11,4]
 x[12,4]
 x[13,4]
 x[14,4]
 x[15,4]
 x[16,4]
 x[17,4]
 x[18,4]
 x[19,4]
 x[20,4]
 x[21,4]
 x[22,4]
 x[23,4]
 x[24,4]
 x[25,4]
 x[26,4]
 x[27,4]
 x[28,4]
 x[29,4]
 x[0,5]
 x[1,5]
 x[2,5]
 x[3,5]
 x[4,5]
 x[5,5]
 x[6,5]
 x[7,5]
 x[8,5]
 x[9,5]
 x[10,5]
 x[11,5]
 x[12,5]
 x[13,5]
 x[14,5]
 x[15,5]
 x[16,5]
 x[17,5]
 x[18,5]
 x[19,5]
 x[20,5]
 x[21,5]
 x[22,5]
 x[23,5]
 x[24,5]
 x[25,5]
 x[26,5]
 x[27,5]
 x[28,5]
 x[29,5]
 x[0,6]
 x[1,6]
 x[2,6]
 x[3,6]
 x[4,6]
 x[5,6]
 x[6,6]
 x[7,6]
 x[8,6]
 x[9,6]
 x[10,6]
 x[11,6]
 x[12,6]
 x[13,6]
 x[14,6]
 x[15,6]
 x[16,6]
 x[17,6]
 x[18,6]
 x[19,6]
 x[20,6]
 x[21,6]
 x[22,6]
 x[23,6]
 x[24,6]
 x[25,6]
 x[26,6]
 x[27,6]
 x[28,6]
 x[29,6]
 x[0,7]
 x[1,7]
 x[2,7]
 x[3,7]
 x[4,7]
 x[5,7]
 x[6,7]
 x[7,7]
 x[8,7]
 x[9,7]
 x[10,7]
 x[11,7]
 x[12,7]
 x[13,7]
 x[14,7]
 x[15,7]
 x[16,7]
 x[17,7]
 x[18,7]
 x[19,7]
 x[20,7]
 x[21,7]
 x[22,7]
 x[23,7]
 x[24,7]
 x[25,7]
 x[26,7]
 x[27,7]
 x[28,7]
 x[29,7]
 x[0,8]
 x[1,8]
 x[2,8]
 x[3,8]
 x[4,8]
 x[5,8]
 x[6,8]
 x[7,8]
 x[8,8]
 x[9,8]
 x[10,8]
 x[11,8]
 x[12,8]
 x[13,8]
 x[14,8]
 x[15,8]
 x[16,8]
 x[17,8]
 x[18,8]
 x[19,8]
 x[20,8]
 x[21,8]
 x[22,8]
 x[23,8]
 x[24,8]
 x[25,8]
 x[26,8]
 x[27,8]
 x[28,8]
 x[29,8]
 x[0,9]
 x[1,9]
 x[2,9]
 x[3,9]
 x[4,9]
 x[5,9]
 x[6,9]
 x[7,9]
 x[8,9]
 x[9,9]
 x[10,9]
 x[11,9]
 x[12,9]
 x[13,9]
 x[14,9]
 x[15,9]
 x[16,9]
 x[17,9]
 x[18,9]
 x[19,9]
 x[20,9]
 x[21,9]
 x[22,9]
 x[23,9]
 x[24,9]
 x[25,9]
 x[26,9]
 x[27,9]
 x[28,9]
 x[29,9]
 x[0,10]
 x[1,10]
 x[2,10]
 x[3,10]
 x[4,10]
 x[5,10]
 x[6,10]
 x[7,10]
 x[8,10]
 x[9,10]
 x[10,10]
 x[11,10]
 x[12,10]
 x[13,10]
 x[14,10]
 x[15,10]
 x[16,10]
 x[17,10]
 x[18,10]
 x[19,10]
 x[20,10]
 x[21,10]
 x[22,10]
 x[23,10]
 x[24,10]
 x[25,10]
 x[26,10]
 x[27,10]
 x[28,10]
 x[29,10]
 x[0,11]
 x[1,11]
 x[2,11]
 x[3,11]
 x[4,11]
 x[5,11]
 x[6,11]
 x[7,11]
 x[8,11]
 x[9,11]
 x[10,11]
 x[11,11]
 x[12,11]
 x[13,11]
 x[14,11]
 x[15,11]
 x[16,11]
 x[17,11]
 x[18,11]
 x[19,11]
 x[20,11]
 x[21,11]
 x[22,11]
 x[23,11]
 x[24,11]
 x[25,11]
 x[26,11]
 x[27,11]
 x[28,11]
 x[29,11]
 x[0,12]
 x[1,12]
 x[2,12]
 x[3,12]
 x[4,12]
 x[5,12]
 x[6,12]
 x[7,12]
 x[8,12]
 x[9,12]
 x[10,12]
 x[11,12]
 x[12,12]
 x[13,12]
 x[14,12]
 x[15,12]
 x[16,12]
 x[17,12]
 x[18,12]
 x[19,12]
 x[20,12]
 x[21,12]
 x[22,12]
 x[23,12]
 x[24,12]
 x[25,12]
 x[26,12]
 x[27,12]
 x[28,12]
 x[29,12]
 x[0,13]
 x[1,13]
 x[2,13]
 x[3,13]
 x[4,13]
 x[5,13]
 x[6,13]
 x[7,13]
 x[8,13]
 x[9,13]
 x[10,13]
 x[11,13]
 x[12,13]
 x[13,13]
 x[14,13]
 x[15,13]
 x[16,13]
 x[17,13]
 x[18,13]
 x[19,13]
 x[20,13]
 x[21,13]
 x[22,13]
 x[23,13]
 x[24,13]
 x[25,13]
 x[26,13]
 x[27,13]
 x[28,13]
 x[29,13]
 x[0,14]
 x[1,14]
 x[2,14]
 x[3,14]
 x[4,14]
 x[5,14]
 x[6,14]
 x[7,14]
 x[8,14]
 x[9,14]
 x[10,14]
 x[11,14]
 x[12,14]
 x[13,14]
 x[14,14]
 x[15,14]
 x[16,14]
 x[17,14]
 x[18,14]
 x[19,14]
 x[20,14]
 x[21,14]
 x[22,14]
 x[23,14]
 x[24,14]
 x[25,14]
 x[26,14]
 x[27,14]
 x[28,14]
 x[29,14]
 y[0]
 y[1]
 y[2]
 y[3]
 y[4]
 y[5]
 y[6]
 y[7]
 y[8]
 y[9]
 y[10]
 y[11]
 y[12]
 y[13]
 y[14]
End
